# Solution for model GasLib-40
# Objective value = 1.1498409478347060e+01
loadshed[innode_1] 0
loadshed[innode_2] 0
loadshed[innode_3] 0
loadshed[innode_4] 0
loadshed[innode_5] 0
loadshed[innode_6] 0
loadshed[innode_7] 0
loadshed[innode_8] 0
loadshed[source_1] -2.1227296635454707e-01
loadshed[source_2] -4.2206902433223670e-02
loadshed[source_3] 3.2721305415475033e-01
loadshed[sink_1] 0
loadshed[sink_2] 0
loadshed[sink_3] 0
loadshed[sink_4] 0
loadshed[sink_5] 0
loadshed[sink_6] 0
loadshed[sink_7] 0
loadshed[sink_8] 0
loadshed[sink_9] 0
loadshed[sink_10] 0
loadshed[sink_11] 0
loadshed[sink_12] 0.70308745854861
loadshed[sink_13] 0
loadshed[sink_14] 0
loadshed[sink_15] 0
loadshed[sink_16] 0
loadshed[sink_17] 0
loadshed[sink_18] 0
loadshed[sink_19] 0
loadshed[sink_20] 0
loadshed[sink_21] 0
loadshed[sink_22] 0
loadshed[sink_23] 0
loadshed[sink_24] 0
loadshed[sink_25] 0
loadshed[sink_26] 0
loadshed[sink_27] 0
loadshed[sink_28] 0
loadshed[sink_29] 0
flow[source_1,sink_3] 1.9164856999348098e+02
flow[innode_1,sink_16] 1.6354166666666970e+01
flow[innode_6,sink_13] 8.1180915127419127e+00
flow[sink_13,sink_14] -8.2360751539247552e+00
flow[sink_14,sink_10] -2.4590241820591423e+01
flow[sink_25,sink_26] 1.7502855607801951e+02
flow[sink_26,sink_9] 1.3568909052165313e+02
flow[sink_9,sink_18] 1.1933492385498646e+02
flow[sink_26,sink_4] 2.2985298889699649e+01
flow[sink_4,sink_20] -1.6837497942264477e+01
flow[sink_18,sink_6] 1.0298075718831979e+02
flow[sink_25,innode_8] -1.5894023666014459e+02
flow[sink_6,sink_7] 5.3918257188319615e+01
flow[sink_6,sink_22] 3.2708333333333641e+01
flow[sink_7,sink_24] 3.7564090521652943e+01
flow[sink_22,sink_1] 1.6354166666666970e+01
flow[sink_24,sink_21] 2.1209923854986275e+01
flow[sink_21,sink_12] 4.8557571883196076e+00
flow[sink_7,sink_5] 0
flow[sink_5,sink_17] -1.6354166666667197e+01
flow[sink_17,sink_4] -2.3468630165297458e+01
flow[sink_17,sink_8] -9.2397031680364066e+00
flow[sink_3,sink_23] 16.3541666666697
flow[sink_8,sink_20] -2.5593869834703074e+01
flow[sink_25,sink_20] 5.8785534443634219e+01
flow[sink_25,sink_15] -9.9346112040917788e+01
flow[sink_15,sink_29] -6.4305470384842437e+01
flow[sink_29,sink_28] 1.6354166666667879e+01
flow[sink_29,sink_2] 6.7748974989408680e+01
flow[sink_2,sink_15] 5.1394808322742016e+01
flow[sink_29,innode_7] -1.6476277870758565e+02
flow[innode_4,sink_19] 9.0006908487258542e+01
flow[sink_19,innode_3] 3.5942227120394556e+01
flow[innode_4,innode_5] 1.6354166666679703e+01
flow[sink_27,innode_5] -1.6354166666679703e+01
flow[sink_27,sink_19] 0
flow[sink_10,sink_11] 3.2708333333333641e+01
flow[sink_10,innode_2] -3.7710514700197173e+01
flow[sink_10,innode_3] -3.5942227120394556e+01
flow[innode_6,sink_25] -8.1180915127419127e+00
flow[sink_11,innode_1] 1.6354166666666970e+01
flow[sink_19,innode_2] 3.7710514700197173e+01
flow[source_3,innode_4] 1.0636107515393824e+02
flow[source_2,innode_7] 1.6476277870758565e+02
flow[sink_3,innode_8] 1.5894023666014459e+02
pressure[innode_1] 7.5221983039235553e+01
pressure[innode_2] 7.7366840798271213e+01
pressure[innode_3] 77.2872508063288
pressure[innode_4] 81.01325
pressure[innode_5] 8.1002000741808786e+01
pressure[innode_6] 7.4240614960819016e+01
pressure[innode_7] 81.01325
pressure[innode_8] 8.0372642042919182e+01
pressure[source_1] 81.01325
pressure[source_2] 81.01325
pressure[source_3] 81.01325
pressure[sink_1] 44.6232506075511
pressure[sink_2] 7.4890333131178650e+01
pressure[sink_3] 8.0372642042919182e+01
pressure[sink_4] 5.8991046155369261e+01
pressure[sink_5] 5.6875885290512713e+01
pressure[sink_6] 4.6724328217938471e+01
pressure[sink_7] 4.5984159068416055e+01
pressure[sink_8] 5.8442790500556036e+01
pressure[sink_9] 5.3792114273191437e+01
pressure[sink_10] 75.3736843468391
pressure[sink_11] 7.5221983039235553e+01
pressure[sink_12] 1.0132500000000011e+00
pressure[sink_13] 74.1958612789684
pressure[sink_14] 74.2106004370148
pressure[sink_15] 7.4722540409238192e+01
pressure[sink_16] 7.4200333204417873e+01
pressure[sink_17] 5.8094152495867462e+01
pressure[sink_18] 4.9474221048874959e+01
pressure[sink_19] 7.7366840798271213e+01
pressure[sink_20] 6.0226323294506351e+01
pressure[sink_21] 2.7411941642302140e+00
pressure[sink_22] 4.5687019749906106e+01
pressure[sink_23] 80.2079240312594
pressure[sink_24] 2.9760743645546981e+00
pressure[sink_25] 7.4240614960819016e+01
pressure[sink_26] 6.1913456544814863e+01
pressure[sink_27] 8.0866291377726043e+01
pressure[sink_28] 7.6311208853398952e+01
pressure[sink_29] 7.6606491127016128e+01
interdiction[source_1,sink_3] 0
interdiction[innode_1,sink_16] 0
interdiction[innode_6,sink_13] 0
interdiction[sink_13,sink_14] 0
interdiction[sink_14,sink_10] 0
interdiction[sink_25,sink_26] 0
interdiction[sink_26,sink_9] 0
interdiction[sink_9,sink_18] 0
interdiction[sink_26,sink_4] 0
interdiction[sink_4,sink_20] 0
interdiction[sink_18,sink_6] 0
interdiction[sink_25,innode_8] 0
interdiction[sink_6,sink_7] 0
interdiction[sink_6,sink_22] 0
interdiction[sink_7,sink_24] 0
interdiction[sink_22,sink_1] 0
interdiction[sink_24,sink_21] 0
interdiction[sink_21,sink_12] 0
interdiction[sink_7,sink_5] 1
interdiction[sink_5,sink_17] 0
interdiction[sink_17,sink_4] 0
interdiction[sink_17,sink_8] 0
interdiction[sink_3,sink_23] 0
interdiction[sink_8,sink_20] 0
interdiction[sink_25,sink_20] 0
interdiction[sink_25,sink_15] 0
interdiction[sink_15,sink_29] 0
interdiction[sink_29,sink_28] 0
interdiction[sink_29,sink_2] 0
interdiction[sink_2,sink_15] 0
interdiction[sink_29,innode_7] 0
interdiction[innode_4,sink_19] 0
interdiction[sink_19,innode_3] 0
interdiction[innode_4,innode_5] 0
interdiction[sink_27,innode_5] 0
interdiction[sink_27,sink_19] 1
interdiction[sink_10,sink_11] 0
interdiction[sink_10,innode_2] 0
interdiction[sink_10,innode_3] 0
interdiction[innode_6,sink_25] 0
interdiction[sink_11,innode_1] 0
interdiction[sink_19,innode_2] 0
interdiction[source_3,innode_4] 0
interdiction[source_2,innode_7] 0
interdiction[sink_3,innode_8] 0
WCcheckFlow[source_1,sink_3] 39
WCcheckFlow[innode_1,sink_16] 1
WCcheckFlow[innode_6,sink_13] 13
WCcheckFlow[sink_13,sink_14] 12
WCcheckFlow[sink_14,sink_10] 11
WCcheckFlow[sink_25,sink_26] 15
WCcheckFlow[sink_26,sink_9] 9
WCcheckFlow[sink_9,sink_18] 8
WCcheckFlow[sink_26,sink_4] 5
WCcheckFlow[sink_4,sink_20] 1
WCcheckFlow[sink_18,sink_6] 7
WCcheckFlow[sink_25,innode_8] -36
WCcheckFlow[sink_6,sink_7] 4
WCcheckFlow[sink_6,sink_22] 2
WCcheckFlow[sink_7,sink_24] 3
WCcheckFlow[sink_22,sink_1] 1
WCcheckFlow[sink_24,sink_21] 2
WCcheckFlow[sink_21,sink_12] 1
WCcheckFlow[sink_7,sink_5] 0
WCcheckFlow[sink_5,sink_17] -1
WCcheckFlow[sink_17,sink_4] -3
WCcheckFlow[sink_17,sink_8] 1
WCcheckFlow[sink_3,sink_23] 1
WCcheckFlow[sink_8,sink_20] 0
WCcheckFlow[sink_25,sink_20] 0
WCcheckFlow[sink_25,sink_15] 6
WCcheckFlow[sink_15,sink_29] 5
WCcheckFlow[sink_29,sink_28] 1
WCcheckFlow[sink_29,sink_2] 1
WCcheckFlow[sink_2,sink_15] 0
WCcheckFlow[sink_29,innode_7] 2
WCcheckFlow[innode_4,sink_19] -4
WCcheckFlow[sink_19,innode_3] -5
WCcheckFlow[innode_4,innode_5] 2
WCcheckFlow[sink_27,innode_5] -1
WCcheckFlow[sink_27,sink_19] 0
WCcheckFlow[sink_10,sink_11] 3
WCcheckFlow[sink_10,innode_2] 1
WCcheckFlow[sink_10,innode_3] 6
WCcheckFlow[innode_6,sink_25] -14
WCcheckFlow[sink_11,innode_1] 2
WCcheckFlow[sink_19,innode_2] 0
WCcheckFlow[source_3,innode_4] -1
WCcheckFlow[source_2,innode_7] -1
WCcheckFlow[sink_3,innode_8] 37
